VRPTWMS/instances/mip/toDelete/fuel_old/5/N5-C_DV100-C_SV25_F5_3_No_1.log

Gurobi 6.0.2 (win64) logging started 06/12/15 16:44:56

Read LP format model from file C:\MT\repository\VRPTWMS\instances\mip\fuel\N5-C_DV100-C_SV25_F5_3_No_1.lp
Reading time = 0.00 seconds
(null): 186 rows, 103 columns, 698 nonzeros
Optimize a model with 186 rows, 103 columns and 698 nonzeros
Model has 150 quadratic constraints
WARNING: Only barrier available for SOCP models
Coefficient statistics:
  Matrix range    [1e+00, 1e+02]
  Objective range [3e+00, 1e+03]
  Bounds range    [1e+00, 1e+02]
  RHS range       [1e+00, 1e+02]
Presolve removed 15 rows and 5 columns
Presolve time: 0.02s
Presolved: 496 rows, 273 columns, 2262 nonzeros
Variable types: 150 continuous, 123 integer (95 binary)
Found heuristic solution: objective 5120.4400000
Optimize a model with 496 rows, 273 columns and 2262 nonzeros
Coefficient statistics:
  Matrix range    [8e-01, 1e+02]
  Objective range [3e+00, 1e+03]
  Bounds range    [1e+00, 1e+02]
  RHS range       [1e+00, 1e+02]
Presolve removed 55 rows and 42 columns
Presolved: 441 rows, 231 columns, 2052 nonzeros


Root relaxation: objective 8.292611e+01, 28 iterations, 0.00 seconds

    Nodes    |    Current Node    |     Objective Bounds      |     Work
 Expl Unexpl |  Obj  Depth IntInf | Incumbent    BestBd   Gap | It/Node Time

     0     0   82.92611    0   13 5120.44000   82.92611  98.4%     -    0s
H    0     0                    4119.8900000   82.92611  98.0%     -    0s
     0     0   87.32000    0   21 4119.89000   87.32000  97.9%     -    0s
H    0     0                    4112.2800000   87.32000  97.9%     -    0s
     0     0   87.32000    0   22 4112.28000   87.32000  97.9%     -    0s
H    0     0                    3184.9900000   87.32000  97.3%     -    0s
     0     0   87.32000    0   14 3184.99000   87.32000  97.3%     -    0s
H    0     0                    3114.8100000   87.32000  97.2%     -    0s
     0     0   87.32000    0   15 3114.81000   87.32000  97.2%     -    0s
H    0     0                    3110.2500000   87.32000  97.2%     -    0s
H    0     0                    2147.3600000   87.32000  95.9%     -    0s
     0     0   87.32000    0   19 2147.36000   87.32000  95.9%     -    0s
H    0     0                    2146.9700000   87.32000  95.9%     -    0s
     0     0   87.32000    0   12 2146.97000   87.32000  95.9%     -    0s
     0     0   87.32000    0   15 2146.97000   87.32000  95.9%     -    0s
     0     0   87.32000    0   12 2146.97000   87.32000  95.9%     -    0s
H    0     0                    2106.1500000   87.32000  95.9%     -    0s
     0     2   87.32000    0   12 2106.15000   87.32000  95.9%     -    0s
H  254    76                    2104.1300000  162.56125  92.3%  12.3    0s
H  888   180                    2102.2400000 1096.78068  47.8%  13.9    0s
H 2093    99                    2099.3200000 1136.16000  45.9%  15.4    0s

Cutting planes:
  Learned: 8
  Gomory: 2
  Cover: 70
  Implied bound: 61
  MIR: 36
  GUB cover: 1
  Zero half: 1

Explored 2452 nodes (37283 simplex iterations) in 0.75 seconds
Thread count was 2 (of 4 available processors)

Optimal solution found (tolerance 1.00e-04)
Best objective 2.099320000000e+03, best bound 2.099320000000e+03, gap 0.0%
k_c1	4.0
k_c2	100.0
k_c3	10.0
k_c4	6.0
k_c5	13.0
k_dN	-0.0
o_1	-0.0
o_2	-0.0
o_3	1.0
o_4	-0.0
o_5	-0.0
p_1	0.0
p_2	-0.0
p_3	1.0
p_4	0.0
p_5	0.0
phi_c1	1.0
phi_c2	3.0
phi_c3	-0.0
phi_c4	4.0
phi_c5	1.0
phi_dN	-0.0
pi_c1	-0.0
pi_c2	-0.0
pi_c3	4.999999999999993
pi_c4	-0.0
pi_c5	-0.0
pi_dN	-0.0
tauD_c1	70.0
tauD_c2	8.0
tauD_c3	37.0
tauD_c4	60.0
tauD_c5	24.000000000000114
tauD_d0	-0.0
tauD_dN	100.0
tauS_c1	1.0
tauS_c2	3.0
tauS_c3	2.0
tauS_c4	0.0
tauS_c5	87.0
tauS_d0	-0.0
tauS_dN	52.0
x_c1_dN	1.0
x_c2_c5	1.0
x_c3_c4	1.0
x_c4_c1	1.0
x_c5_c3	1.0
x_d0_c2	1.0
z_c3_dN	0.9999999999999964
z_d0_c3	1.0
